NAME : random_8
COMMENT : 30 random nodes
TYPE : TSP
DIMENSION : 30
EDGE_WEIGHT_TYPE : EUC_2D
NODE_COORD_SECTION
1 6 611
2 599 73
3 806 765
4 393 518
5 727 811
6 626 994
7 746 456
8 890 982
9 957 325
10 142 572
11 537 820
12 878 183
13 794 348
14 984 55
15 453 756
16 844 485
17 625 142
18 827 489
19 238 994
20 555 682
21 655 952
22 899 679
23 596 227
24 793 348
25 301 381
26 187 799
27 731 249
28 765 503
29 620 80
30 33 679
EOF